\ This file has been generated by DOcplex
\ ENCODING=ISO-8859-1
\Problem name: random_problem.lp

Minimize
 obj: 728 x0 + 364 x1 + 182 x2 - 1344 x3 - 672 x4 - 336 x5 + 84 x6 + 42 x7
      + 21 x8 + [ 4864 x0^2 + 4864 x0*x1 + 2432 x0*x2 + 4480 x0*x3 + 2240 x0*x4
      + 1120 x0*x5 + 1216 x1^2 + 1216 x1*x2 + 2240 x1*x3 + 1120 x1*x4
      + 560 x1*x5 + 304 x2^2 + 1120 x2*x3 + 560 x2*x4 + 280 x2*x5 + 8384 x3^2
      + 8384 x3*x4 + 4192 x3*x5 + 8832 x3*x6 + 4416 x3*x7 + 2208 x3*x8
      + 2096 x4^2 + 2096 x4*x5 + 4416 x4*x6 + 2208 x4*x7 + 1104 x4*x8 + 524 x5^2
      + 2208 x5*x6 + 1104 x5*x7 + 552 x5*x8 + 8128 x6^2 + 8128 x6*x7
      + 4064 x6*x8 + 2032 x7^2 + 2032 x7*x8 + 508 x8^2 ]/2
Subject To
 c0: 4 x0 + 2 x1 + x2 + 4 x3 + 2 x4 + x5 + 4 x6 + 2 x7 + x8 = 7

Bounds
 0 <= x0 <= 1
 0 <= x1 <= 1
 0 <= x2 <= 1
 0 <= x3 <= 1
 0 <= x4 <= 1
 0 <= x5 <= 1
 0 <= x6 <= 1
 0 <= x7 <= 1
 0 <= x8 <= 1

Binaries
 x0 x1 x2 x3 x4 x5 x6 x7 x8
End
